Route #1: 41 36 55 30 5 17 28 25 24 47
Route #2: 3 51 53 31 43 23 15 40 2 49
Route #3: 50 34 14 6 18 35 52 37 39
Route #4: 4 16 7 32 12 46
Route #5: 26 29 9 13 54 42 20
Route #6: 57 27 19 10 45 11 22
Route #7: 56 8 33 48 21 44 38
cost 1279
